NAME : eil101.tsp
COMMENT : Optimal tour for eil101.tsp
TYPE : TOUR
DIMENSION : 101
Total Length: 671.3159121989354
TOUR_SECTION
1
51
9
81
33
50
76
77
3
79
78
34
35
71
65
66
20
30
70
10
32
90
63
64
49
36
47
46
8
45
83
60
5
84
17
61
85
98
37
100
91
16
86
38
44
14
42
43
15
57
2
87
97
92
59
93
99
96
18
7
82
48
19
11
62
88
31
69
52
89
6
94
95
13
58
40
21
73
72
74
22
41
75
56
23
67
39
25
55
4
54
24
29
68
80
12
26
53
101
27
28
-1
EOF
